
Gurobi 6.5.2 (linux64) logging started Wed Mar 15 12:47:44 2017


Gurobi 6.5.2 (linux64) logging started Wed Mar 15 12:47:44 2017

Optimize a model with 101 rows, 663 columns and 1431 nonzeros
Coefficient statistics:
  Matrix range    [1e+00, 2e+00]
  Objective range [2e+00, 1e+02]
  Bounds range    [1e+00, 1e+00]
  RHS range       [1e+00, 1e+00]
Found heuristic solution: objective 1919
Presolve removed 31 rows and 10 columns
Presolve time: 0.00s
Presolved: 70 rows, 653 columns, 1323 nonzeros
Variable types: 0 continuous, 653 integer (653 binary)

Root relaxation: objective 7.425000e+02, 66 iterations, 0.00 seconds

    Nodes    |    Current Node    |     Objective Bounds      |     Work
 Expl Unexpl |  Obj  Depth IntInf | Incumbent    BestBd   Gap | It/Node Time

     0     0  742.50000    0   20 1919.00000  742.50000  61.3%     -    0s
     0     0  782.00000    0   10 1919.00000  782.00000  59.2%     -    0s
     0     0  782.75000    0    8 1919.00000  782.75000  59.2%     -    0s
     0     0  783.50000    0   20 1919.00000  783.50000  59.2%     -    0s
     0     0  783.50000    0   18 1919.00000  783.50000  59.2%     -    0s
     0     2  783.50000    0   18 1919.00000  783.50000  59.2%     -    0s
H   94    75                    1169.0000000  784.00000  32.9%   3.7    0s
*  424   327              53     906.0000000  785.00000  13.4%   4.2    0s
*  469   193              16     800.0000000  785.00000  1.88%   4.3    0s
*  710   156              10     799.0000000  785.33333  1.71%   4.1    0s
*  721   117              13     796.0000000  785.33333  1.34%   4.1    0s
*  742    82              11     792.0000000  785.50000  0.82%   4.1    0s

Cutting planes:
  Gomory: 14
  Cover: 42
  Zero half: 3
  Lazy constraints: 50

Explored 1443 nodes (6077 simplex iterations) in 0.24 seconds
Thread count was 8 (of 8 available processors)

Optimal solution found (tolerance 1.00e-04)
Best objective 7.920000000000e+02, best bound 7.920000000000e+02, gap 0.0%
